CPLEX 12.4.0.0: timing=1
varsel=4
mipdisplay=4
timelimit=7200
MIP Presolve eliminated 113400 rows and 666 columns.
MIP Presolve modified 6300 coefficients.
Reduced MIP has 21420 rows, 630 columns, and 64260 nonzeros.
Reduced MIP has 630 binaries, 0 generals, 0 SOSs, and 0 indicators.
Probing time =    0.01 sec.
Found feasible solution after 6.44 sec.  Objective = 0.0000
Probing time =    0.01 sec.
MIP emphasis: balance optimality and feasibility.
MIP search method: dynamic search.
Parallel mode: deterministic, using up to 4 threads.
Root relaxation solution time =    2.73 sec.

        Nodes                                         Cuts/
   Node  Left     Objective  IInf  Best Integer    Best Bound    ItCnt     Gap

*     0+    0                            0.0000                   5022     --- 
      0     0        0.2976   321        0.0000        0.2976     5022     --- 
*     0+    0                            0.2030        0.2976     5022   46.58%
      0     0        0.2940   307        0.2030     Cuts: 291     5344   44.81%
*     0+    0                            0.2129        0.2940     5344   38.08%
      0     0        0.2918   363        0.2129     Cuts: 408     5774   37.06%
*     0+    0                            0.2504        0.2918     5774   16.56%
      0     0        0.2892   367        0.2504 ZeroHalf: 289     6116   15.52%
*     0     0      integral     0        0.2883 ZeroHalf: 140     6256    0.00%
      0     0        cutoff              0.2883        0.2883     6256    0.00%
Elapsed real time =  23.38 sec. (tree size =  0.00 MB)

Zero-half cuts applied:  159

Root node processing (before b&c):
  Real time             =   16.95
Parallel b&c, 4 threads:
  Real time             =    0.00
  Sync time (average)   =    0.00
  Wait time (average)   =    0.00
                          -------
Total (root+branch&cut) =   16.95 sec.

Times (seconds):
Input =  0.174973
Solve =  18.0223
Output = 0.191971
CPLEX 12.4.0.0: optimal integer solution; objective 0.2883379247
6256 MIP simplex iterations
0 branch-and-bound nodes
_total_solve_user_time = 18.2722

t [*,*]
:    1   2   3   4   5   6   7   8   9  10  11  12  13  14  15  16  17  18  19 :=
1    0   1   1   1   1   1   1   1   1   0   0   1   1   0   1   1   1   0   0
2    1   0   1   1   1   1   1   1   1   1   1   1   1   1   1   1   1   1   1
3    1   1   0   0   0   0   1   1   1   1   1   0   1   1   1   1   1   1   1
4    1   1   0   0   0   0   1   1   1   1   1   0   1   1   1   1   1   1   1
5    1   1   0   0   0   0   1   1   1   1   1   0   1   1   1   1   1   1   1
6    1   1   0   0   0   0   1   1   1   1   1   0   1   1   1   1   1   1   1
7    1   1   1   1   1   1   0   0   0   1   1   1   1   1   1   1   0   1   1
8    1   1   1   1   1   1   0   0   0   1   1   1   1   1   1   1   0   1   1
9    1   1   1   1   1   1   0   0   0   1   1   1   1   1   1   1   0   1   1
10   0   1   1   1   1   1   1   1   1   0   0   1   1   0   1   1   1   0   0
11   0   1   1   1   1   1   1   1   1   0   0   1   1   0   1   1   1   0   0
12   1   1   0   0   0   0   1   1   1   1   1   0   1   1   1   1   1   1   1
13   1   1   1   1   1   1   1   1   1   1   1   1   0   1   0   0   1   1   1
14   0   1   1   1   1   1   1   1   1   0   0   1   1   0   1   1   1   0   0
15   1   1   1   1   1   1   1   1   1   1   1   1   0   1   0   0   1   1   1
16   1   1   1   1   1   1   1   1   1   1   1   1   0   1   0   0   1   1   1
17   1   1   1   1   1   1   0   0   0   1   1   1   1   1   1   1   0   1   1
18   0   1   1   1   1   1   1   1   1   0   0   1   1   0   1   1   1   0   0
19   0   1   1   1   1   1   1   1   1   0   0   1   1   0   1   1   1   0   0
20   1   0   1   1   1   1   1   1   1   1   1   1   1   1   1   1   1   1   1
21   1   1   0   0   0   0   1   1   1   1   1   0   1   1   1   1   1   1   1
22   1   1   0   0   0   0   1   1   1   1   1   0   1   1   1   1   1   1   1
23   1   1   0   0   0   0   1   1   1   1   1   0   1   1   1   1   1   1   1
24   1   1   0   0   0   0   1   1   1   1   1   0   1   1   1   1   1   1   1
25   1   1   1   1   1   1   0   0   0   1   1   1   1   1   1   1   0   1   1
26   1   1   1   1   1   1   1   1   1   1   1   1   0   1   0   0   1   1   1
27   1   1   1   1   1   1   0   0   0   1   1   1   1   1   1   1   0   1   1
28   0   1   1   1   1   1   1   1   1   0   0   1   1   0   1   1   1   0   0
29   0   1   1   1   1   1   1   1   1   0   0   1   1   0   1   1   1   0   0
30   1   1   0   0   0   0   1   1   1   1   1   0   1   1   1   1   1   1   1
31   1   1   1   1   1   1   0   0   0   1   1   1   1   1   1   1   0   1   1
32   0   1   1   1   1   1   1   1   1   0   0   1   1   0   1   1   1   0   0
33   1   1   1   1   1   1   0   0   0   1   1   1   1   1   1   1   0   1   1
34   1   1   1   1   1   1   1   1   1   1   1   1   0   1   0   0   1   1   1
35   1   1   1   1   1   1   1   1   1   1   1   1   0   1   0   0   1   1   1
36   0   1   1   1   1   1   1   1   1   0   0   1   1   0   1   1   1   0   0

:   20  21  22  23  24  25  26  27  28  29  30  31  32  33  34  35  36    :=
1    1   1   1   1   1   1   1   1   0   0   1   1   0   1   1   1   0
2    0   1   1   1   1   1   1   1   1   1   1   1   1   1   1   1   1
3    1   0   0   0   0   1   1   1   1   1   0   1   1   1   1   1   1
4    1   0   0   0   0   1   1   1   1   1   0   1   1   1   1   1   1
5    1   0   0   0   0   1   1   1   1   1   0   1   1   1   1   1   1
6    1   0   0   0   0   1   1   1   1   1   0   1   1   1   1   1   1
7    1   1   1   1   1   0   1   0   1   1   1   0   1   0   1   1   1
8    1   1   1   1   1   0   1   0   1   1   1   0   1   0   1   1   1
9    1   1   1   1   1   0   1   0   1   1   1   0   1   0   1   1   1
10   1   1   1   1   1   1   1   1   0   0   1   1   0   1   1   1   0
11   1   1   1   1   1   1   1   1   0   0   1   1   0   1   1   1   0
12   1   0   0   0   0   1   1   1   1   1   0   1   1   1   1   1   1
13   1   1   1   1   1   1   0   1   1   1   1   1   1   1   0   0   1
14   1   1   1   1   1   1   1   1   0   0   1   1   0   1   1   1   0
15   1   1   1   1   1   1   0   1   1   1   1   1   1   1   0   0   1
16   1   1   1   1   1   1   0   1   1   1   1   1   1   1   0   0   1
17   1   1   1   1   1   0   1   0   1   1   1   0   1   0   1   1   1
18   1   1   1   1   1   1   1   1   0   0   1   1   0   1   1   1   0
19   1   1   1   1   1   1   1   1   0   0   1   1   0   1   1   1   0
20   0   1   1   1   1   1   1   1   1   1   1   1   1   1   1   1   1
21   1   0   0   0   0   1   1   1   1   1   0   1   1   1   1   1   1
22   1   0   0   0   0   1   1   1   1   1   0   1   1   1   1   1   1
23   1   0   0   0   0   1   1   1   1   1   0   1   1   1   1   1   1
24   1   0   0   0   0   1   1   1   1   1   0   1   1   1   1   1   1
25   1   1   1   1   1   0   1   0   1   1   1   0   1   0   1   1   1
26   1   1   1   1   1   1   0   1   1   1   1   1   1   1   0   0   1
27   1   1   1   1   1   0   1   0   1   1   1   0   1   0   1   1   1
28   1   1   1   1   1   1   1   1   0   0   1   1   0   1   1   1   0
29   1   1   1   1   1   1   1   1   0   0   1   1   0   1   1   1   0
30   1   0   0   0   0   1   1   1   1   1   0   1   1   1   1   1   1
31   1   1   1   1   1   0   1   0   1   1   1   0   1   0   1   1   1
32   1   1   1   1   1   1   1   1   0   0   1   1   0   1   1   1   0
33   1   1   1   1   1   0   1   0   1   1   1   0   1   0   1   1   1
34   1   1   1   1   1   1   0   1   1   1   1   1   1   1   0   0   1
35   1   1   1   1   1   1   0   1   1   1   1   1   1   1   0   0   1
36   1   1   1   1   1   1   1   1   0   0   1   1   0   1   1   1   0
;

